6 9 16 19 7 14 3 17 13 1 0 2 4 12 18 15 8 5 10 11  
6 9 19 7 3 16 2 14 18 17 1 0 15 12 13 4 8 5 10 11  
6 9 19 16 7 14 1 3 2 17 13 4 0 12 18 15 8 5 10 11  
6 9 19 16 7 14 3 17 13 1 0 2 4 12 18 15 8 5 10 11  
6 9 19 7 3 16 2 14 18 17 13 1 0 4 12 15 8 5 10 11  
6 9 19 3 16 7 2 14 18 17 13 1 0 4 12 15 8 5 10 11  
6 16 9 19 7 14 3 17 13 1 0 2 4 12 18 15 8 5 10 11  
6 9 19 7 16 3 2 14 18 17 13 1 0 4 12 15 8 5 10 11  
6 9 16 19 7 14 3 17 13 1 0 2 4 12 18 15 8 5 10 11  
6 9 19 7 3 16 2 14 18 17 13 1 0 4 12 15 8 5 10 11  
6 9 16 19 7 14 3 17 13 1 0 2 4 12 18 15 8 5 10 11  
6 16 9 19 7 14 3 17 13 1 0 2 4 12 18 15 8 5 10 11  
6 9 19 3 16 7 2 17 18 14 13 1 0 4 12 15 8 5 10 11  
6 9 19 7 16 3 2 14 18 17 13 1 0 4 12 15 8 5 10 11  
6 9 16 19 7 14 3 18 2 17 13 1 0 4 12 15 8 5 10 11  
6 9 19 16 7 14 1 3 2 17 13 4 0 12 18 15 8 5 10 11  
6 9 16 19 3 7 2 14 18 17 13 1 4 0 12 15 8 5 10 11  
6 16 18 19 7 14 3 17 13 1 0 2 4 12 9 15 8 5 10 11  
6 9 19 7 16 3 2 17 18 14 13 1 0 4 12 15 8 5 10 11  
6 9 16 19 3 7 2 14 18 17 13 1 0 4 15 12 8 5 10 11  
6 9 16 19 7 14 3 17 13 1 0 2 4 12 18 15 8 5 10 11  
6 9 19 3 16 18 14 7 2 17 13 1 0 4 12 15 8 5 10 11  
6 16 9 19 7 14 3 17 13 1 0 2 4 12 18 15 8 5 10 11  
6 16 18 19 7 14 3 17 13 1 0 2 4 12 9 15 8 5 10 11  
6 9 16 19 7 3 14 18 2 17 13 1 0 4 12 15 8 5 10 11  
6 9 19 3 16 7 2 14 18 17 13 1 0 4 12 15 8 5 10 11  
6 16 9 19 1 3 14 7 2 17 13 0 4 18 12 15 8 5 10 11  
6 9 16 19 7 14 3 18 2 17 13 1 0 4 12 15 8 5 10 11  
6 9 19 3 16 7 2 14 18 17 1 0 15 13 4 12 8 5 10 11  
6 9 16 19 7 14 1 3 2 18 17 13 0 4 12 15 8 5 10 11  
6 9 16 19 7 14 3 17 13 1 0 2 4 8 18 15 12 5 10 11  
6 9 19 16 3 18 14 7 2 17 13 1 0 4 12 15 8 5 10 11  
16 9 19 7 6 17 1 3 2 14 18 0 15 13 8 4 12 5 10 11  
6 9 19 16 7 14 1 3 2 17 13 4 0 12 18 15 8 5 10 11  
6 9 16 19 7 3 14 18 2 17 13 1 0 4 12 15 8 5 10 11  
6 9 19 7 16 3 2 17 18 14 13 1 0 4 12 15 8 5 10 11  
16 9 6 19 7 14 3 17 1 0 2 18 15 13 8 4 12 5 10 11  
